51
11
0 14 15 16 17 19 21 24 25 26 31 32 34 35 36 37 45 47 48 50
1 12 16 19 20 21 24 25 28 29 31 32 33 34 35 37 40 41 45 46 47 48 49 50
2 11 12 13 14 15 18 19 20 21 22 24 25 26 31 32 33 34 37 40 44 45 46 48 49 50
3 11 12 13 14 16 19 20 21 22 24 25 26 27 31 32 36 37 40 42 43 44 46 47 50
4 11 12 13 16 22 24 25 28 33 34 36 38 40 43 45 46 47 49
5 12 15 21 23 25 30 31 33 35 37 40 44 45 46 48 49
6 11 14 19 22 23 24 26 31 32 34 39 45 47 48 49 50
7 14 18 19 20 22 23 26 41 48
8 12 13 25 26 30 31 32 33 43 47 50
9 14 16 34 36 39 41 45
10 15 32 40
